!========================================================!
! Input for calculation with ONETEP                      !
!                                                        !
! Quality Control file for:                              ! 
! Dynamical Mean Field Theory calculations (imag freq)   !
! Iron Carbonate molecule FeCO_3                         !
!                                                        !
! Created by E. B. Linscott on 18/04/2016                !
!                                                        !
! Theory of Condensed Matter                             !
! Department of Physics                                  !
! University of Cambridge                                !
! CB3 0HE Cambridge, UK                                  !
!                                                        !
!========================================================!

task                  : properties
cutoff_energy         : 400.000000 eV
xc_functional         : LDA

kerfix                : 2
pen_param             : 6.0

spin_polarized        : T
spin                  : 2

write_denskern        : T
write_tightbox_ngwfs  : F
read_denskern         : T
read_tightbox_ngwfs   : T
hubbard_proj_mixing   : -1.0
write_forces          : F
do_properties         : T
output_detail         : VERBOSE
print_qc              : T
cube_format           : F

dos_smear             :  0.00 Hartree
dmft_emin             : -1.0 Hartree
dmft_emax             :  1.0 Hartree
dmft_points           :  400
dmft_smear            :  0.0005   Hartree
dmft_smear_shift      :  0.00     Hartree
dmft_smear_T          :  0.008    Hartree
dmft_smear_eta        :  0.008    Hartree
dmft_smear_w          :  0.045    Hartree
dmft_paramagnetic     :  F
dmft_cutoff_tail      :   0.00 Hartree
dmft_cutoff_small     :  10.00 Hartree
dmft_rotate_green     :  T
dmft_temp             :  0.00093 Hartree
dmft_complex_freq     :  T
dmft_dos_min          : -0.23 Hartree
dmft_dos_max          :  0.23 Hartree
dmft_mu_diff_max      : 0.00500000
dmft_kernel           : 1
dmft_kernel_mix       : 0.1
dmft_nmu_loop         : 12
dmft_mu_order         : 4
dmft_read             : F
dmft_write            : T

maxit_pen             :  0
maxit_palser_mano     : -1
maxit_kernel_fix      :  250
maxit_hotelling       :  0
delta_e_conv          :  T

%block hubbard
Fe 2 6.0 0.0 -10.0 0.0 0.0
%endblock hubbard 

%block lattice_cart
Ang
  21.167    0.000    0.000
   0.000   21.167    0.000
   0.000    0.000   21.167
%endblock lattice_cart

%block positions_abs
Ang
Fe  6.546149	5.698683   5.613481
C   4.317344	5.190539   5.214890
O   5.371306	4.329598   5.149560
O   4.840265	6.389633   5.603814
O   3.161252	4.956243   4.982952
%endblock positions_abs

%block species
Ang
Fe    Fe  26  9  5.0
C      C   6  4  5.0
O      O   8  4  5.0
%endblock species

%block species_pot 
Fe   "../../pseudo/iron.recpot"
C    "../../pseudo/carbon.recpot"
O    "../../pseudo/oxygen.recpot"
%endblock species_pot
